* Signature: 0xa1a1798dafd1cba3
NAME lp_typeD_152
OBJSENSE MAX
ROWS
 N  OBJ
 L  c0      
 G  c1      
 G  c2      
 L  c_key_upper
 G  c_key_lower
 G  _chain_constr_1
 G  _chain_constr_2
 G  _chain_constr_3
 G  _chain_constr_4
 G  _chain_cycle
COLUMNS
    x0        OBJ       1.0880046305023274e+00
    x0        c0        1.9700180159074767e+00
    x0        c1        1.0103332645585006e+00
    x0        c2        1.5191198609131784e+00
    x0        c_key_upper  1.3346551373013420e+00
    x0        c_key_lower  1.3346551373013420e+00
    x1        OBJ       9.7476494880895148e-01
    x1        c0        8.8151849299672835e-01
    x1        c1        8.1682427253353618e-01
    x1        c2        1.0938520590169940e+00
    x1        c_key_upper  1.2884718544004539e+00
    x1        c_key_lower  1.2884718544004539e+00
    x2        OBJ       5.2099860954367061e-01
    x2        c0        1.5003519204200535e+00
    x2        c1        1.5790061044196626e+00
    x2        c2        1.9414201461267493e+00
    x2        c_key_upper  1.5105077739053785e+00
    x2        c_key_lower  1.5105077739053785e+00
    x3        OBJ       8.2350928401371148e-01
    x3        c0        1.7239211293715750e+00
    x3        c1        0.59177260007352
    x3        c2        7.9863791082619384e-01
    x3        c_key_upper  1.4278244600975056e+00
    x3        c_key_lower  1.4278244600975056e+00
    x4        OBJ       5.0144175412501413e-01
    x4        c0        1.1690801682792928e+00
    x4        c1        1.8581181415089745e+00
    x4        c2        1.5887573187784683e+00
    x4        c_key_upper  1.4436393750607808e+00
    x4        c_key_lower  1.4436393750607808e+00
    x5        OBJ       9.3931666249358814e-01
    x5        c0        9.9018641522947615e-01
    x5        c1        6.8302773170367925e-01
    x5        c2        1.9108549702925604e+00
    x5        c_key_upper  1.2149007447397846e+00
    x5        c_key_lower  1.2149007447397846e+00
    x6        OBJ       0.72429744097381
    x6        c0        1.88764379280258
    x6        c1        7.0130128958449522e-01
    x6        c2        1.0041691122616763e+00
    x6        c_key_upper  1.8389513058271216e+00
    x6        c_key_lower  1.8389513058271216e+00
    x7        OBJ       6.4489430366876466e-01
    x7        c0        8.4062389056607767e-01
    x7        c1        1.2934119194992644e+00
    x7        c2        1.2949664896822197e+00
    x7        c_key_upper  1.2274549449686212e+00
    x7        c_key_lower  1.2274549449686212e+00
    x8        OBJ       7.0061310567739188e-01
    x8        c0        5.8111518762424375e-01
    x8        c1        1.3616469806375922e+00
    x8        c2        9.3717151396438769e-01
    x8        c_key_upper  1.1793911819402190e+00
    x8        c_key_lower  1.1793911819402190e+00
    x9        OBJ       1.0750816146486490e+00
    x9        c0        9.5792526971366110e-01
    x9        c1        7.6287809211967406e-01
    x9        c2        1.6672534556291092e+00
    x9        c_key_upper  1.8922345791485287e+00
    x9        c_key_lower  1.8922345791485287e+00
    _chain_var_0  _chain_constr_1  -1
    _chain_var_0  _chain_cycle  1
    _chain_var_1  _chain_constr_1  1
    _chain_var_1  _chain_constr_2  -1
    _chain_var_2  _chain_constr_2  1
    _chain_var_2  _chain_constr_3  -1
    _chain_var_3  _chain_constr_3  1
    _chain_var_3  _chain_constr_4  -1
    _chain_var_4  _chain_constr_4  1
    _chain_var_4  _chain_cycle  -1
RHS
    RHS1      c0        6.1999076645385649e+01
    RHS1      c1        1.6852359828190949e+01
    RHS1      c2        1.7335376121688778e+01
    RHS1      c_key_upper  7.1790156786948685e+01
    RHS1      c_key_lower  3.5895078393474343e+01
    RHS1      _chain_constr_1  10
    RHS1      _chain_constr_2  10
    RHS1      _chain_constr_3  10
    RHS1      _chain_constr_4  10
    RHS1      _chain_cycle  10
BOUNDS
 UP BND1      x0        10
 UP BND1      x1        10
 UP BND1      x2        10
 UP BND1      x3        10
 UP BND1      x4        10
 UP BND1      x5        10
 UP BND1      x6        10
 UP BND1      x7        10
 UP BND1      x8        10
 UP BND1      x9        10
 UP BND1      _chain_var_0  100
 UP BND1      _chain_var_1  100
 UP BND1      _chain_var_2  100
 UP BND1      _chain_var_3  100
 UP BND1      _chain_var_4  100
ENDATA
